c strEdges: 125  randomEdges: 504 
c degrees:  1  2 
c girth: Inf max: -43.604516  
c Hgirth mixed MAXCUT instance
c generated from an undirected graph
c to solve unweighted MaxCut
p cnf 140 1258
51 71 0
-51 -71 0
28 140 0
-28 -140 0
28 103 0
-28 -103 0
128 136 0
-128 -136 0
68 124 0
-68 -124 0
64 10 0
-64 -10 0
64 134 0
-64 -134 0
114 24 0
-114 -24 0
114 16 0
-114 -16 0
133 74 0
-133 -74 0
133 62 0
-133 -62 0
110 103 0
-110 -103 0
110 42 0
-110 -42 0
125 83 0
-125 -83 0
125 136 0
-125 -136 0
1 8 0
-1 -8 0
1 71 0
-1 -71 0
116 112 0
-116 -112 0
116 124 0
-116 -124 0
61 99 0
-61 -99 0
105 13 0
-105 -13 0
43 16 0
-43 -16 0
43 88 0
-43 -88 0
132 5 0
-132 -5 0
132 38 0
-132 -38 0
113 39 0
-113 -39 0
115 65 0
-115 -65 0
37 60 0
-37 -60 0
37 130 0
-37 -130 0
27 127 0
-27 -127 0
27 79 0
-27 -79 0
6 18 0
-6 -18 0
6 120 0
-6 -120 0
32 57 0
-32 -57 0
32 20 0
-32 -20 0
98 94 0
-98 -94 0
98 99 0
-98 -99 0
95 126 0
-95 -126 0
95 18 0
-95 -18 0
121 88 0
-121 -88 0
100 134 0
-100 -134 0
100 92 0
-100 -92 0
7 21 0
-7 -21 0
7 10 0
-7 -10 0
23 73 0
-23 -73 0
23 9 0
-23 -9 0
77 109 0
-77 -109 0
77 13 0
-77 -13 0
31 129 0
-31 -129 0
49 48 0
-49 -48 0
49 112 0
-49 -112 0
135 104 0
-135 -104 0
107 90 0
-107 -90 0
107 3 0
-107 -3 0
17 47 0
-17 -47 0
17 67 0
-17 -67 0
122 86 0
-122 -86 0
122 21 0
-122 -21 0
81 54 0
-81 -54 0
81 48 0
-81 -48 0
35 38 0
-35 -38 0
35 54 0
-35 -54 0
59 40 0
-59 -40 0
59 86 0
-59 -86 0
118 120 0
-118 -120 0
118 73 0
-118 -73 0
76 63 0
-76 -63 0
76 117 0
-76 -117 0
123 11 0
-123 -11 0
123 60 0
-123 -60 0
96 130 0
-96 -130 0
96 90 0
-96 -90 0
25 15 0
-25 -15 0
25 131 0
-25 -131 0
137 44 0
-137 -44 0
137 126 0
-137 -126 0
29 72 0
-29 -72 0
29 44 0
-29 -44 0
12 69 0
-12 -69 0
12 91 0
-12 -91 0
58 79 0
-58 -79 0
58 34 0
-58 -34 0
19 45 0
-19 -45 0
19 69 0
-19 -69 0
108 41 0
-108 -41 0
108 63 0
-108 -63 0
14 2 0
-14 -2 0
14 104 0
-14 -104 0
139 78 0
-139 -78 0
139 24 0
-139 -24 0
101 92 0
-101 -92 0
101 140 0
-101 -140 0
87 62 0
-87 -62 0
87 89 0
-87 -89 0
33 20 0
-33 -20 0
33 5 0
-33 -5 0
46 53 0
-46 -53 0
46 109 0
-46 -109 0
50 4 0
-50 -4 0
26 34 0
-26 -34 0
97 52 0
-97 -52 0
55 91 0
-55 -91 0
84 89 0
-84 -89 0
84 8 0
-84 -8 0
66 80 0
-66 -80 0
66 93 0
-66 -93 0
56 102 0
-56 -102 0
56 4 0
-56 -4 0
119 138 0
-119 -138 0
119 47 0
-119 -47 0
111 9 0
-111 -9 0
106 75 0
-106 -75 0
106 65 0
-106 -65 0
70 93 0
-70 -93 0
70 40 0
-70 -40 0
22 3 0
-22 -3 0
22 39 0
-22 -39 0
85 117 0
-85 -117 0
85 11 0
-85 -11 0
36 67 0
-36 -67 0
36 129 0
-36 -129 0
30 131 0
-30 -131 0
30 52 0
-30 -52 0
82 42 0
-82 -42 0
82 94 0
-82 -94 0
6 103 0
-6 -103 0
105 63 0
-105 -63 0
133 20 0
-133 -20 0
77 117 0
-77 -117 0
19 5 0
-19 -5 0
14 97 0
-14 -97 0
107 57 0
-107 -57 0
74 73 0
-74 -73 0
81 21 0
-81 -21 0
17 102 0
-17 -102 0
134 91 0
-134 -91 0
71 138 0
-71 -138 0
104 54 0
-104 -54 0
133 13 0
-133 -13 0
77 47 0
-77 -47 0
57 54 0
-57 -54 0
27 97 0
-27 -97 0
122 54 0
-122 -54 0
103 134 0
-103 -134 0
28 121 0
-28 -121 0
32 136 0
-32 -136 0
14 86 0
-14 -86 0
12 127 0
-12 -127 0
119 57 0
-119 -57 0
30 120 0
-30 -120 0
87 30 0
-87 -30 0
27 139 0
-27 -139 0
132 36 0
-132 -36 0
95 63 0
-95 -63 0
110 109 0
-110 -109 0
25 4 0
-25 -4 0
58 102 0
-58 -102 0
28 11 0
-28 -11 0
43 18 0
-43 -18 0
16 91 0
-16 -91 0
43 20 0
-43 -20 0
133 71 0
-133 -71 0
35 96 0
-35 -96 0
30 8 0
-30 -8 0
35 34 0
-35 -34 0
17 101 0
-17 -101 0
22 11 0
-22 -11 0
95 42 0
-95 -42 0
101 74 0
-101 -74 0
45 4 0
-45 -4 0
48 92 0
-48 -92 0
135 41 0
-135 -41 0
91 80 0
-91 -80 0
28 123 0
-28 -123 0
90 45 0
-90 -45 0
111 30 0
-111 -30 0
105 69 0
-105 -69 0
16 67 0
-16 -67 0
64 126 0
-64 -126 0
44 89 0
-44 -89 0
23 31 0
-23 -31 0
25 55 0
-25 -55 0
87 70 0
-87 -70 0
87 63 0
-87 -63 0
1 30 0
-1 -30 0
94 15 0
-94 -15 0
118 76 0
-118 -76 0
112 9 0
-112 -9 0
76 86 0
-76 -86 0
129 67 0
-129 -67 0
119 120 0
-119 -120 0
31 15 0
-31 -15 0
66 67 0
-66 -67 0
55 112 0
-55 -112 0
127 86 0
-127 -86 0
111 138 0
-111 -138 0
101 131 0
-101 -131 0
103 62 0
-103 -62 0
132 58 0
-132 -58 0
98 52 0
-98 -52 0
39 3 0
-39 -3 0
118 91 0
-118 -91 0
83 134 0
-83 -134 0
59 12 0
-59 -12 0
36 11 0
-36 -11 0
17 22 0
-17 -22 0
122 33 0
-122 -33 0
136 11 0
-136 -11 0
39 134 0
-39 -134 0
55 44 0
-55 -44 0
33 44 0
-33 -44 0
7 102 0
-7 -102 0
95 97 0
-95 -97 0
72 67 0
-72 -67 0
28 62 0
-28 -62 0
30 40 0
-30 -40 0
101 83 0
-101 -83 0
56 48 0
-56 -48 0
17 19 0
-17 -19 0
66 3 0
-66 -3 0
48 93 0
-48 -93 0
26 136 0
-26 -136 0
124 40 0
-124 -40 0
140 89 0
-140 -89 0
118 9 0
-118 -9 0
112 11 0
-112 -11 0
24 131 0
-24 -131 0
121 53 0
-121 -53 0
128 76 0
-128 -76 0
130 93 0
-130 -93 0
61 57 0
-61 -57 0
104 93 0
-104 -93 0
31 130 0
-31 -130 0
1 40 0
-1 -40 0
82 45 0
-82 -45 0
83 53 0
-83 -53 0
106 10 0
-106 -10 0
32 23 0
-32 -23 0
32 88 0
-32 -88 0
126 63 0
-126 -63 0
16 20 0
-16 -20 0
23 29 0
-23 -29 0
123 9 0
-123 -9 0
111 124 0
-111 -124 0
119 136 0
-119 -136 0
17 20 0
-17 -20 0
49 107 0
-49 -107 0
43 52 0
-43 -52 0
36 112 0
-36 -112 0
103 109 0
-103 -109 0
136 67 0
-136 -67 0
10 78 0
-10 -78 0
66 99 0
-66 -99 0
98 96 0
-98 -96 0
25 8 0
-25 -8 0
133 26 0
-133 -26 0
101 40 0
-101 -40 0
43 45 0
-43 -45 0
51 23 0
-51 -23 0
22 102 0
-22 -102 0
116 61 0
-116 -61 0
76 47 0
-76 -47 0
120 9 0
-120 -9 0
95 136 0
-95 -136 0
123 33 0
-123 -33 0
87 69 0
-87 -69 0
29 16 0
-29 -16 0
26 82 0
-26 -82 0
106 34 0
-106 -34 0
49 14 0
-49 -14 0
107 119 0
-107 -119 0
133 100 0
-133 -100 0
118 140 0
-118 -140 0
107 20 0
-107 -20 0
115 38 0
-115 -38 0
119 39 0
-119 -39 0
66 75 0
-66 -75 0
43 10 0
-43 -10 0
136 24 0
-136 -24 0
110 36 0
-110 -36 0
110 104 0
-110 -104 0
27 73 0
-27 -73 0
137 45 0
-137 -45 0
51 13 0
-51 -13 0
22 15 0
-22 -15 0
75 42 0
-75 -42 0
7 74 0
-7 -74 0
43 95 0
-43 -95 0
81 101 0
-81 -101 0
26 38 0
-26 -38 0
51 126 0
-51 -126 0
85 72 0
-85 -72 0
84 21 0
-84 -21 0
71 45 0
-71 -45 0
46 24 0
-46 -24 0
50 42 0
-50 -42 0
84 126 0
-84 -126 0
112 60 0
-112 -60 0
128 16 0
-128 -16 0
51 109 0
-51 -109 0
67 42 0
-67 -42 0
94 117 0
-94 -117 0
118 99 0
-118 -99 0
6 9 0
-6 -9 0
94 38 0
-94 -38 0
140 16 0
-140 -16 0
54 11 0
-54 -11 0
132 67 0
-132 -67 0
84 24 0
-84 -24 0
133 6 0
-133 -6 0
14 9 0
-14 -9 0
80 117 0
-80 -117 0
53 93 0
-53 -93 0
140 104 0
-140 -104 0
27 140 0
-27 -140 0
135 45 0
-135 -45 0
59 74 0
-59 -74 0
55 45 0
-55 -45 0
58 119 0
-58 -119 0
100 4 0
-100 -4 0
30 130 0
-30 -130 0
38 45 0
-38 -45 0
137 84 0
-137 -84 0
14 80 0
-14 -80 0
51 99 0
-51 -99 0
128 54 0
-128 -54 0
137 67 0
-137 -67 0
72 138 0
-72 -138 0
43 60 0
-43 -60 0
69 9 0
-69 -9 0
13 57 0
-13 -57 0
113 106 0
-113 -106 0
101 46 0
-101 -46 0
106 86 0
-106 -86 0
14 56 0
-14 -56 0
133 12 0
-133 -12 0
43 75 0
-43 -75 0
121 97 0
-121 -97 0
72 78 0
-72 -78 0
60 2 0
-60 -2 0
33 80 0
-33 -80 0
85 90 0
-85 -90 0
33 69 0
-33 -69 0
110 53 0
-110 -53 0
6 84 0
-6 -84 0
43 104 0
-43 -104 0
39 34 0
-39 -34 0
132 50 0
-132 -50 0
20 4 0
-20 -4 0
33 71 0
-33 -71 0
66 22 0
-66 -22 0
109 120 0
-109 -120 0
98 4 0
-98 -4 0
136 45 0
-136 -45 0
140 53 0
-140 -53 0
81 94 0
-81 -94 0
62 138 0
-62 -138 0
56 13 0
-56 -13 0
31 80 0
-31 -80 0
65 57 0
-65 -57 0
22 45 0
-22 -45 0
36 78 0
-36 -78 0
92 4 0
-92 -4 0
139 38 0
-139 -38 0
96 88 0
-96 -88 0
140 131 0
-140 -131 0
51 138 0
-51 -138 0
31 112 0
-31 -112 0
76 92 0
-76 -92 0
113 25 0
-113 -25 0
134 72 0
-134 -72 0
1 14 0
-1 -14 0
87 72 0
-87 -72 0
51 6 0
-51 -6 0
111 91 0
-111 -91 0
121 99 0
-121 -99 0
22 92 0
-22 -92 0
127 117 0
-127 -117 0
118 40 0
-118 -40 0
82 20 0
-82 -20 0
105 102 0
-105 -102 0
128 125 0
-128 -125 0
45 62 0
-45 -62 0
19 92 0
-19 -92 0
99 130 0
-99 -130 0
47 2 0
-47 -2 0
84 75 0
-84 -75 0
107 65 0
-107 -65 0
118 4 0
-118 -4 0
33 134 0
-33 -134 0
95 124 0
-95 -124 0
49 119 0
-49 -119 0
50 67 0
-50 -67 0
76 65 0
-76 -65 0
80 131 0
-80 -131 0
76 22 0
-76 -22 0
32 94 0
-32 -94 0
84 90 0
-84 -90 0
9 3 0
-9 -3 0
29 42 0
-29 -42 0
43 34 0
-43 -34 0
23 57 0
-23 -57 0
57 138 0
-57 -138 0
1 91 0
-1 -91 0
139 56 0
-139 -56 0
95 75 0
-95 -75 0
12 73 0
-12 -73 0
68 96 0
-68 -96 0
76 82 0
-76 -82 0
69 79 0
-69 -79 0
73 91 0
-73 -91 0
119 130 0
-119 -130 0
25 74 0
-25 -74 0
6 20 0
-6 -20 0
6 78 0
-6 -78 0
105 66 0
-105 -66 0
132 30 0
-132 -30 0
108 18 0
-108 -18 0
88 79 0
-88 -79 0
26 20 0
-26 -20 0
43 14 0
-43 -14 0
51 102 0
-51 -102 0
30 21 0
-30 -21 0
65 20 0
-65 -20 0
57 134 0
-57 -134 0
29 131 0
-29 -131 0
101 4 0
-101 -4 0
19 56 0
-19 -56 0
9 67 0
-9 -67 0
105 23 0
-105 -23 0
64 71 0
-64 -71 0
136 78 0
-136 -78 0
58 103 0
-58 -103 0
12 86 0
-12 -86 0
39 109 0
-39 -109 0
119 73 0
-119 -73 0
110 24 0
-110 -24 0
46 13 0
-46 -13 0
51 42 0
-51 -42 0
1 36 0
-1 -36 0
28 131 0
-28 -131 0
126 67 0
-126 -67 0
65 54 0
-65 -54 0
1 42 0
-1 -42 0
1 17 0
-1 -17 0
116 132 0
-116 -132 0
72 80 0
-72 -80 0
18 109 0
-18 -109 0
130 92 0
-130 -92 0
35 53 0
-35 -53 0
95 102 0
-95 -102 0
129 78 0
-129 -78 0
108 97 0
-108 -97 0
30 16 0
-30 -16 0
121 4 0
-121 -4 0
15 3 0
-15 -3 0
137 33 0
-137 -33 0
71 130 0
-71 -130 0
64 111 0
-64 -111 0
85 131 0
-85 -131 0
98 117 0
-98 -117 0
32 29 0
-32 -29 0
23 30 0
-23 -30 0
99 11 0
-99 -11 0
140 10 0
-140 -10 0
116 34 0
-116 -34 0
36 94 0
-36 -94 0
43 37 0
-43 -37 0
77 99 0
-77 -99 0
43 100 0
-43 -100 0
5 34 0
-5 -34 0
98 20 0
-98 -20 0
39 80 0
-39 -80 0
116 135 0
-116 -135 0
25 9 0
-25 -9 0
25 109 0
-25 -109 0
71 65 0
-71 -65 0
70 36 0
-70 -36 0
59 19 0
-59 -19 0
49 12 0
-49 -12 0
99 16 0
-99 -16 0
90 69 0
-90 -69 0
116 115 0
-116 -115 0
65 92 0
-65 -92 0
8 138 0
-8 -138 0
52 80 0
-52 -80 0
10 80 0
-10 -80 0
47 92 0
-47 -92 0
139 140 0
-139 -140 0
96 44 0
-96 -44 0
107 136 0
-107 -136 0
68 56 0
-68 -56 0
94 48 0
-94 -48 0
84 11 0
-84 -11 0
73 48 0
-73 -48 0
106 80 0
-106 -80 0
1 35 0
-1 -35 0
39 91 0
-39 -91 0
1 111 0
-1 -111 0
87 34 0
-87 -34 0
114 69 0
-114 -69 0
20 3 0
-20 -3 0
127 78 0
-127 -78 0
24 129 0
-24 -129 0
5 91 0
-5 -91 0
21 131 0
-21 -131 0
22 129 0
-22 -129 0
13 53 0
-13 -53 0
138 9 0
-138 -9 0
27 122 0
-27 -122 0
121 59 0
-121 -59 0
75 93 0
-75 -93 0
82 92 0
-82 -92 0
71 124 0
-71 -124 0
32 78 0
-32 -78 0
115 15 0
-115 -15 0
23 34 0
-23 -34 0
105 115 0
-105 -115 0
116 134 0
-116 -134 0
70 69 0
-70 -69 0
86 78 0
-86 -78 0
113 9 0
-113 -9 0
51 119 0
-51 -119 0
72 92 0
-72 -92 0
27 33 0
-27 -33 0
12 92 0
-12 -92 0
109 34 0
-109 -34 0
1 118 0
-1 -118 0
71 24 0
-71 -24 0
102 42 0
-102 -42 0
18 102 0
-18 -102 0
60 69 0
-60 -69 0
77 82 0
-77 -82 0
100 71 0
-100 -71 0
51 115 0
-51 -115 0
96 57 0
-96 -57 0
55 109 0
-55 -109 0
69 117 0
-69 -117 0
8 91 0
-8 -91 0
60 138 0
-60 -138 0
124 13 0
-124 -13 0
121 70 0
-121 -70 0
16 120 0
-16 -120 0
38 131 0
-38 -131 0
133 55 0
-133 -55 0
30 10 0
-30 -10 0
63 69 0
-63 -69 0
34 102 0
-34 -102 0
133 24 0
-133 -24 0
32 101 0
-32 -101 0
85 88 0
-85 -88 0
114 65 0
-114 -65 0
50 54 0
-50 -54 0
86 93 0
-86 -93 0
130 20 0
-130 -20 0
139 15 0
-139 -15 0
115 88 0
-115 -88 0
110 86 0
-110 -86 0
61 20 0
-61 -20 0
76 55 0
-76 -55 0
85 134 0
-85 -134 0
23 54 0
-23 -54 0
89 131 0
-89 -131 0
55 71 0
-55 -71 0
110 120 0
-110 -120 0
35 140 0
-35 -140 0
77 35 0
-77 -35 0
43 84 0
-43 -84 0
15 93 0
-15 -93 0
113 6 0
-113 -6 0
14 138 0
-14 -138 0
101 24 0
-101 -24 0
29 20 0
-29 -20 0
107 60 0
-107 -60 0
119 102 0
-119 -102 0
59 54 0
-59 -54 0
34 131 0
-34 -131 0
55 72 0
-55 -72 0
117 131 0
-117 -131 0
73 67 0
-73 -67 0
110 58 0
-110 -58 0
120 62 0
-120 -62 0
43 33 0
-43 -33 0
68 49 0
-68 -49 0
70 65 0
-70 -65 0
132 117 0
-132 -117 0
133 53 0
-133 -53 0
112 42 0
-112 -42 0
59 11 0
-59 -11 0
11 20 0
-11 -20 0
27 55 0
-27 -55 0
19 78 0
-19 -78 0
26 104 0
-26 -104 0
43 39 0
-43 -39 0
116 136 0
-116 -136 0
137 102 0
-137 -102 0
84 79 0
-84 -79 0
25 84 0
-25 -84 0
113 89 0
-113 -89 0
12 84 0
-12 -84 0
31 58 0
-31 -58 0
20 117 0
-20 -117 0
56 74 0
-56 -74 0
136 73 0
-136 -73 0
127 91 0
-127 -91 0
100 135 0
-100 -135 0
18 94 0
-18 -94 0
79 78 0
-79 -78 0
82 86 0
-82 -86 0
59 72 0
-59 -72 0
37 58 0
-37 -58 0
61 25 0
-61 -25 0
121 92 0
-121 -92 0
7 118 0
-7 -118 0
43 82 0
-43 -82 0
101 130 0
-101 -130 0
100 3 0
-100 -3 0
127 9 0
-127 -9 0
24 126 0
-24 -126 0
100 84 0
-100 -84 0
132 109 0
-132 -109 0
72 93 0
-72 -93 0
122 36 0
-122 -36 0
119 2 0
-119 -2 0
64 40 0
-64 -40 0
70 82 0
-70 -82 0
132 74 0
-132 -74 0
125 43 0
-125 -43 0
25 50 0
-25 -50 0
